[VALIDATOR STDOUT]
Checking plan: /home/jfan5/Safety-gen/runs/benchmark/optic/grid_20260205_115226/grid/optic_results/grid_x3_y3_sh2_k4_l4_s3001.plan
Plan executed successfully - checking goal
Plan valid
Final value: 33 

Successful plans:
Value: 33
 /home/jfan5/Safety-gen/runs/benchmark/optic/grid_20260205_115226/grid/optic_results/grid_x3_y3_sh2_k4_l4_s3001.plan 33
